
Gurobi 9.5.2 (win64) logging started Mon Mar 27 20:44:26 2023

Set parameter LogFile to value "2023-03-27_20hr-25min-09sec/Nodes20_Arcs25_LocNodes15/Formulation-1Instance-5.log"
Set parameter TimeLimit to value 600
Set parameter IntFeasTol to value 1e-09
Set parameter DualReductions to value 0
Set parameter NonConvex to value 2
Gurobi Optimizer version 9.5.2 build v9.5.2rc0 (win64)
Thread count: 4 physical cores, 8 logical processors, using up to 8 threads
Optimize a model with 81 rows, 140 columns and 290 nonzeros
Model fingerprint: 0xdf736a38
Model has 15 quadratic objective terms
Model has 45 SOS constraints
Variable types: 125 continuous, 15 integer (15 binary)
Coefficient statistics:
  Matrix range     [2e-02, 2e+02]
  Objective range  [3e+00, 2e+02]
  QObjective range [2e+00, 2e+00]
  Bounds range     [1e+00, 1e+00]
  RHS range        [2e-01, 1e+03]
Presolve removed 10 rows and 18 columns
Presolve time: 0.01s
Presolved: 98 rows, 137 columns, 309 nonzeros
Presolved model has 33 SOS constraint(s)
Presolved model has 13 bilinear constraint(s)
Variable types: 122 continuous, 15 integer (15 binary)

Root relaxation: unbounded, 64 iterations, 0.00 seconds (0.00 work units)

    Nodes    |    Current Node    |     Objective Bounds      |     Work
 Expl Unexpl |  Obj  Depth IntInf | Incumbent    BestBd   Gap | It/Node Time

     0     0  postponed    0               -          -      -     -    0s
     0     0  postponed    0               -          -      -     -    0s
Exploring 100 nodes in MinRel heuristic
No solution found by MinRel heuristic
     0     2  postponed    0               -          -      -     -    0s
H 1246   619                    484233.97896          -      -   6.3    0s
* 1357   619              78    485318.02650          -      -   6.0    0s
H 1503   619                    486680.82227          -      -   5.5    0s
H 1640   619                    504150.22493          -      -   5.2    0s
H 4106   321                    504505.22493          -      -   4.0    1s
* 5291   423             107    504511.85748          -      -   4.1    1s
* 5293   423             108    504511.85814          -      -   4.1    1s
H11101   402                    504523.64813          -      -   5.4    2s
H12261   418                    508453.72924          -      -   5.5    2s
H16287   377                    508679.76644          -      -   5.5    3s
H18606   380                    508694.18774          -      -   5.7    3s
*23087   327              57    508774.55737          -      -   6.0    4s
*23089   327              58    508774.99263          -      -   6.0    4s
*23091   327              59    508775.09947          -      -   6.0    4s
*23093   327              60    508775.12520          -      -   6.0    4s
*23095   327              61    508775.13113          -      -   6.0    4s
*23097   327              62    508775.13237          -      -   6.0    4s
*23099   327              63    508775.13256          -      -   6.0    4s
 25130   355  postponed   30      508775.133          -      -   6.3    5s
H28272   356                    508944.22404          -      -   6.5    5s
H33975   399                    509084.18773          -      -   6.7    7s
H40610  1478                    509099.77577 525011.386  3.13%   6.0    8s
H42233  1719                    509103.97511 522605.733  2.65%   5.8    8s
*46019  1784              80    509104.11810 518205.061  1.79%   5.4    9s
*46024  1784              79    509104.11836 518205.061  1.79%   5.4    9s
*46026  1784              81    509104.11843 518205.061  1.79%   5.4    9s
*46312  1784              69    509104.34588 518112.910  1.77%   5.4    9s
*46317  1784              71    509104.34594 518112.910  1.77%   5.4    9s
 49166  1305 509158.472   54    3 509104.346 513987.748  0.96%   5.2   10s
*54912   234              70    509104.36063 509706.914  0.12%   4.9   11s
*54918   234              71    509104.37531 509706.914  0.12%   4.9   11s
H54921   234                    509104.37979 509706.914  0.12%   4.9   11s
*54932   234              75    509104.38077 509706.914  0.12%   4.9   11s
*55056   268              95    509104.38117 509687.661  0.11%   4.9   11s
*55073   268              75    509104.38207 509687.661  0.11%   4.9   11s
*55453   268              71    509104.78518 509644.778  0.11%   4.9   11s
*55957   268              76    509104.81819 509191.271  0.02%   4.9   11s
*56067   674              81    509104.81863 509183.408  0.02%   4.9   11s
*56106   674              75    509104.82365 509183.408  0.02%   4.9   11s
*56157   674              78    509104.83506 509183.408  0.02%   4.8   11s
*56163   674              79    509104.84190 509183.408  0.02%   4.8   11s
*56166   674              81    509104.84208 509183.408  0.02%   4.8   11s
*56573   674              86    509104.84473 509164.825  0.01%   4.8   11s
*56576   674              85    509104.84524 509164.825  0.01%   4.8   11s

Explored 57681 nodes (273093 simplex iterations) in 11.47 seconds (1.40 work units)
Thread count was 8 (of 8 available processors)

Solution count 10: 509105 509105 509105 ... 509104

Optimal solution found (tolerance 1.00e-04)
Best objective 5.091048452442e+05, best bound 5.091050345016e+05, gap 0.0000%

User-callback calls 115984, time in user-callback 1.20 sec
